[[74, 64, 65, 66, 67, 68, 59, 60, 49, 58, 57, 56, 55, 46, 47, 38, 48, 39, 40, 50, 41, 32, 31, 30, 29, 37, 28, 19, 20, 21, 22, 23, 13], [12, 11, 10, 2, 3, 4, 14, 5, 15, 6, 7, 8, 9, 18, 17, 16, 25, 24, 26, 27, 35, 36, 44, 34, 43, 33, 42, 51, 52], [45, 53, 54, 63, 62, 61, 72, 81, 71, 70, 80, 69, 78, 77, 79, 88, 89, 90, 99, 98, 97, 96, 87, 95, 86, 85, 94, 84, 93, 92, 91, 83, 82, 73, 75, 76]]